c FILE /home/rafael/Documents/HappySet/MIHS/inputs/happygen/output/graph_d_regular_k3_p0.3_v50_20241127_082559.txt
c SOURCE This is a d-regular graph formed for the happy graph colouring problem.
c DESCRIPTION It was generated using the problem generator of Rhyd Lewis
c
c GRAPH STATS
c Seed                             = 360719871
c Number of Nodes                  = 50
c Number of colours k              = 3
c Number of pre-assignments        = 15
c Degree of all vertices           = 6
c Density                          = 0.122449
c 
c The degrees of nodes 1 to 50, respectively, are as follows 
c [6, 6, 6, 6, 6, 6, 6, 6, 6, 6, 6, 6, 6, 6, 6, 6, 6, 6, 6, 6, 6, 6, 6, 6, 6, 6, 
c  6, 6, 6, 6, 6, 6, 6, 6, 6, 6, 6, 6, 6, 6, 6, 6, 6, 6, 6, 6, 6, 6, 6, 6] 
c  
p edge 50 150 3
e 1 14
e 1 15
e 1 26
e 1 31
e 1 43
e 1 48
e 2 4
e 2 9
e 2 24
e 2 25
e 2 33
e 2 45
e 3 6
e 3 9
e 3 20
e 3 25
e 3 35
e 3 49
e 4 21
e 4 23
e 4 24
e 4 32
e 4 42
e 5 9
e 5 10
e 5 16
e 5 28
e 5 32
e 5 35
e 6 28
e 6 31
e 6 32
e 6 37
e 6 49
e 7 10
e 7 13
e 7 26
e 7 36
e 7 37
e 7 43
e 8 17
e 8 21
e 8 26
e 8 29
e 8 40
e 8 48
e 9 12
e 9 22
e 9 47
e 10 13
e 10 22
e 10 23
e 10 32
e 11 17
e 11 20
e 11 27
e 11 33
e 11 45
e 11 50
e 12 25
e 12 33
e 12 34
e 12 40
e 12 42
e 13 15
e 13 16
e 13 29
e 13 34
e 14 21
e 14 35
e 14 46
e 14 47
e 14 49
e 15 16
e 15 19
e 15 36
e 15 43
e 16 28
e 16 39
e 16 47
e 17 20
e 17 22
e 17 30
e 17 48
e 18 19
e 18 24
e 18 29
e 18 34
e 18 47
e 18 48
e 19 36
e 19 38
e 19 44
e 19 46
e 20 32
e 20 39
e 20 44
e 21 42
e 21 43
e 21 44
e 22 25
e 22 28
e 22 37
e 23 26
e 23 30
e 23 35
e 23 37
e 24 33
e 24 34
e 24 47
e 25 38
e 25 42
e 26 36
e 26 38
e 27 31
e 27 33
e 27 39
e 27 46
e 27 49
e 28 38
e 28 48
e 29 38
e 29 40
e 29 45
e 30 32
e 30 36
e 30 41
e 30 44
e 31 33
e 31 34
e 31 40
e 34 39
e 35 36
e 35 46
e 37 41
e 37 50
e 38 40
e 39 43
e 39 44
e 40 42
e 41 42
e 41 43
e 41 49
e 41 50
e 44 50
e 45 47
e 45 49
e 45 50
e 46 48
e 46 50
n 4 2
n 10 1
n 15 3
n 16 3
n 17 1
n 20 1
n 24 2
n 25 2
n 26 2
n 29 2
n 37 2
n 41 2
n 45 2
n 46 1
n 48 1
